(set-option :produce-models true)
(set-logic QF_UF)
(declare-fun p39() Bool)
(declare-fun p42() Bool)
(declare-fun p46() Bool)
(declare-fun p45() Bool)
(declare-fun p10() Bool)
(declare-fun p48() Bool)
(declare-fun p33() Bool)
(declare-fun p61() Bool)
(declare-fun p17() Bool)
(declare-fun p23() Bool)
(declare-fun p22() Bool)
(declare-fun p8() Bool)
(declare-fun p73() Bool)
(declare-fun p15() Bool)
(declare-fun p64() Bool)
(declare-fun p12() Bool)
(declare-fun p13() Bool)
(declare-fun p40() Bool)
(declare-fun p50() Bool)
(declare-fun p56() Bool)
(declare-fun p36() Bool)
(declare-fun p24() Bool)
(declare-fun p71() Bool)
(declare-fun p27() Bool)
(declare-fun p25() Bool)
(declare-fun p34() Bool)
(declare-fun p69() Bool)
(declare-fun p67() Bool)
(declare-fun p77() Bool)
(declare-fun p9() Bool)
(declare-fun p51() Bool)
(declare-fun p3() Bool)
(declare-fun p6() Bool)
(declare-fun p32() Bool)
(declare-fun p63() Bool)
(declare-fun p4() Bool)
(declare-fun p16() Bool)
(declare-fun p37() Bool)
(declare-fun p31() Bool)
(declare-fun p75() Bool)
(declare-fun p44() Bool)
(declare-fun p20() Bool)
(declare-fun p30() Bool)
(declare-fun p57() Bool)
(declare-fun p60() Bool)
(declare-fun p7() Bool)
(declare-fun p21() Bool)
(declare-fun p58() Bool)
(declare-fun p54() Bool)
(declare-fun p78() Bool)
(declare-fun p5() Bool)
(declare-fun p76() Bool)
(declare-fun p26() Bool)
(declare-fun p62() Bool)
(declare-fun p2() Bool)
(declare-fun p41() Bool)
(declare-fun p52() Bool)
(declare-fun p66() Bool)
(declare-fun p29() Bool)
(declare-fun p35() Bool)
(declare-fun p38() Bool)
(declare-fun p47() Bool)
(declare-fun p14() Bool)
(declare-fun p74() Bool)
(declare-fun p70() Bool)
(declare-fun p19() Bool)
(declare-fun p28() Bool)
(declare-fun p49() Bool)
(declare-fun p68() Bool)
(declare-fun p43() Bool)
(declare-fun p59() Bool)
(declare-fun p0() Bool)
(declare-fun p18() Bool)
(declare-fun p53() Bool)
(declare-fun p1() Bool)
(declare-fun p72() Bool)
(declare-fun p55() Bool)
(declare-fun p79() Bool)
(declare-fun p11() Bool)
(declare-fun p65() Bool)
(assert
(and (or (not p39) (not p42) p46) (or p45 p10 p48) (or p33 p61 p17) (or p46 p23 (not p39)) (or (not p22) p8 (not p73)) (or p15 p64 p12) (or (not p45) (not p13) (not p33)) (or (not p40) (not p50) p39) (or (not p40) p56 (not p36)) (or p24 (not p71) p48) (or (not p8) p13 (not p46)) (or (not p27) p25 (not p46)) (or (not p34) p69 p22) (or (not p67) (not p77) p71) (or (not p9) p51 p3) (or (not p6) p32 (not p63)) (or p4 (not p16) p37) (or p31 (not p17) p75) (or (not p44) p24 p20) (or p64 (not p34) p33) (or p61 p30 (not p20)) (or p37 p8 p57) (or (not p33) p60 (not p23)) (or (not p60) (not p67) p16) (or (not p64) (not p7) p21) (or (not p30) p36 (not p58)) (or (not p22) (not p61) p54) (or (not p32) (not p56) (not p40)) (or (not p61) (not p21) (not p78)) (or p10 p61 p5) (or (not p57) p75 p42) (or (not p76) p26 p4) (or p22 p62 (not p51)) (or p2 p63 (not p41)) (or (not p52) (not p66) p30) (or (not p29) p35 p45) (or p35 p7 (not p40)) (or (not p38) (not p75) (not p47)) (or p14 (not p13) (not p22)) (or p25 p73 (not p54)) (or (not p60) p29 p74) (or (not p9) (not p51) p70) (or (not p51) (not p12) (not p19)) (or (not p62) (not p16) (not p28)) (or p27 (not p42) (not p49)) (or p2 (not p6) p64) (or (not p40) (not p58) (not p13)) (or (not p12) (not p3) p35) (or (not p68) p26 p75) (or (not p54) (not p33) p34) (or p38 p52 (not p68)) (or (not p73) (not p58) p52) (or (not p58) (not p16) (not p15)) (or p56 (not p78) p48) (or (not p9) (not p49) (not p76)) (or (not p27) p30 (not p43)) (or p39 (not p64) (not p20)) (or (not p41) (not p47) (not p62)) (or p60 (not p51) (not p59)) (or p8 p64 p6) (or p15 p2 p54) (or p20 (not p12) p26) (or (not p28) (not p64) p57) (or (not p19) (not p2) p0) (or (not p25) p57 p45) (or (not p9) (not p18) (not p45)) (or p63 p8 (not p60)) (or p8 (not p53) p19) (or (not p36) p23 p66) (or (not p19) (not p68) p58) (or (not p8) p42 p54) (or (not p14) p73 p36) (or p57 p69 p6) (or (not p13) p68 (not p71)) (or (not p48) (not p12) p53) (or p4 (not p26) (not p49)) (or (not p74) p75 (not p56)) (or (not p38) p18 p0) (or (not p59) p63 (not p45)) (or (not p44) p30 p62) (or p47 p49 (not p59)) (or p45 (not p78) (not p50)) (or (not p77) (not p38) p44) (or (not p60) p36 (not p69)) (or p49 p73 (not p26)) (or (not p47) p49 (not p28)) (or p0 p9 (not p50)) (or p28 (not p16) (not p52)) (or p45 (not p50) (not p48)) (or p69 p77 (not p10)) (or (not p75) (not p17) p20) (or p18 p27 p41) (or p46 (not p66) (not p32)) (or (not p1) (not p61) (not p67)) (or p57 (not p74) (not p5)) (or (not p34) (not p63) p17) (or p15 p40 p38) (or p16 p48 p73) (or (not p61) p24 (not p72)) (or p42 (not p55) p6) (or (not p35) (not p68) p48) (or p3 p71 (not p23)) (or p70 p48 (not p29)) (or (not p18) p61 p79) (or p11 (not p60) p5) (or (not p63) (not p54) (not p78)) (or p43 p28 (not p79)) (or (not p72) (not p52) p57) (or p43 (not p36) p40) (or (not p44) (not p48) (not p49)) (or (not p13) p49 (not p63)) (or (not p1) (not p28) p12) (or (not p34) p19 (not p16)) (or (not p66) p51 (not p56)) (or p76 p56 p39) (or (not p53) (not p78) (not p1)) (or (not p12) p5 p79) (or (not p22) (not p59) (not p42)) (or p1 (not p64) p69) (or (not p10) p53 p71) (or p13 p9 (not p22)) (or p12 p59 p27) (or p30 p52 (not p27)) (or p9 (not p36) p77) (or (not p4) p64 p25) (or (not p62) p46 (not p44)) (or p76 (not p22) p56) (or (not p38) (not p30) (not p18)) (or (not p34) (not p23) (not p59)) (or p34 p20 p8) (or (not p58) (not p48) p46) (or p16 p39 (not p49)) (or p29 p74 p16) (or (not p1) p64 (not p68)) (or p37 (not p11) p40) (or p49 p17 p49) (or (not p61) (not p30) (not p67)) (or p11 (not p54) p55) (or (not p49) p5 p30) (or p24 p10 (not p65)) (or p26 (not p66) (not p28)) (or (not p63) p26 (not p33)) (or (not p75) p27 (not p47)) (or (not p26) (not p58) p72) (or p56 p57 p56) (or (not p16) (not p29) p48) (or (not p49) p72 (not p66)) (or p47 p66 (not p19)) (or (not p56) (not p32) (not p29)) (or (not p11) p73 (not p4)) (or p72 p17 p66) (or p65 p8 (not p63)) (or (not p20) p0 (not p32)) (or p59 (not p36) p76) (or p49 (not p56) (not p77)) (or (not p8) p38 (not p47)) (or (not p15) (not p56) p12) (or p39 (not p57) (not p33)) (or p16 p65 (not p48)) (or (not p57) (not p10) p49) (or p62 (not p17) p24) (or p11 p42 (not p55)) (or (not p34) (not p59) (not p25)) (or p6 (not p47) (not p49)) (or (not p46) p69 (not p14)) (or p58 (not p74) (not p59)) (or p32 (not p70) (not p1)) (or p71 p2 (not p23)) (or (not p43) p22 (not p28)) (or (not p45) p31 p15) (or p13 p69 p14) (or p78 p56 p68) (or p51 p47 (not p1)) (or (not p28) (not p46) (not p11)) (or (not p65) (not p57) (not p9)) (or p64 p52 (not p47)) (or (not p45) p34 (not p78)) (or (not p34) p7 (not p5)) (or (not p56) (not p2) p25) (or p23 p30 p23) (or (not p1) (not p23) p29) (or p39 (not p23) (not p40)) (or (not p3) (not p74) p36) (or p30 (not p54) (not p10)) (or p61 (not p20) p59) (or p63 (not p52) p10) (or p65 p7 p21) (or (not p44) (not p47) p42) (or p73 (not p38) p5) (or (not p39) (not p11) p30) (or (not p50) p5 (not p8)) (or p58 (not p16) (not p8)) (or (not p15) p19 (not p74)) (or (not p22) p62 p49) (or (not p49) (not p38) (not p7)) (or (not p55) p29 p64) (or p34 (not p66) (not p37)) (or p25 p18 p26) (or p37 (not p31) (not p54)) (or (not p17) (not p27) p60) (or (not p34) p0 (not p12)) (or (not p1) (not p30) p50) (or p59 p24 (not p42)) (or p55 p43 (not p78)) (or p66 p9 p34) (or (not p63) (not p54) p58) (or (not p58) p54 p58) (or (not p65) p21 (not p61)) (or (not p78) p40 (not p77)) (or (not p38) p77 p36) (or (not p59) (not p1) p7) (or (not p41) p77 (not p57)) (or (not p35) p20 (not p30)) (or (not p24) p48 p64) (or p28 (not p21) p55) (or (not p75) (not p58) (not p18)) (or (not p52) p65 (not p18)) (or p34 p7 (not p64)) (or p56 (not p64) p65) (or p17 p42 (not p74)) (or (not p31) (not p38) p65) (or p43 p64 (not p47)) (or (not p14) p15 p44) (or (not p50) (not p59) p35) (or p2 (not p24) p27) (or (not p1) p29 p35) (or p51 p44 p49) (or (not p65) (not p12) p44) (or p69 (not p11) p17) (or p27 p52 p27) (or (not p30) (not p32) p66) (or (not p41) (not p73) p78) (or p13 (not p42) (not p15)) (or p35 p61 (not p27)) (or (not p39) p25 p79) (or p14 p13 p59) (or p2 (not p75) p44) (or (not p51) (not p30) (not p12)) (or p67 p0 (not p28)) (or (not p24) (not p9) p14) (or (not p22) (not p40) (not p51)) (or p71 (not p27) (not p56)) (or (not p39) (not p17) (not p73)) (or p33 p74 (not p53)) (or p10 (not p21) p57) (or p26 p18 (not p42)) (or p79 (not p16) p55) (or (not p22) (not p1) (not p67)) (or (not p70) (not p34) (not p67)) (or p66 p10 (not p27)) (or (not p4) p44 (not p74)) (or p67 p35 p12) (or (not p45) p53 (not p11)) (or (not p62) p20 p32) (or (not p31) p11 p8) (or p47 p72 p0) (or p67 (not p30) p55) (or p55 p50 p41) (or (not p21) p26 p5) (or (not p30) (not p39) (not p64)) (or p51 (not p46) p63) (or (not p60) (not p44) p44) (or p55 (not p70) p1) (or p14 p56 p71) (or (not p25) (not p14) p65) (or p31 (not p58) (not p7)) (or p61 (not p68) (not p8)) (or p49 (not p75) p72) (or (not p49) p17 (not p42)) (or (not p36) p52 (not p28)) (or (not p23) p33 p13) (or p1 (not p61) p45) (or p33 p14 p58) (or p1 (not p13) p13) (or (not p57) (not p47) p43) (or (not p59) p19 (not p8)) (or (not p18) (not p21) p60) (or (not p40) (not p23) (not p48)) (or p58 (not p21) p48) (or p59 p54 p59) (or (not p31) (not p4) (not p9)) (or p41 (not p8) (not p22)) (or p16 (not p25) (not p47)) (or p45 (not p6) p74) (or p31 p61 (not p64)) (or (not p77) p2 p13) (or (not p18) (not p5) (not p8)) (or (not p44) (not p18) (not p57)) (or p76 (not p31) p60) (or (not p36) (not p9) (not p14)) (or (not p65) (not p75) (not p31)) (or p27 p76 p57) (or (not p56) p22 (not p58)) (or p39 p53 (not p55)) (or (not p13) p13 (not p0)) (or p25 p51 (not p52)) (or p33 (not p73) p77) (or p49 p48 p17) (or p9 (not p70) (not p67)) (or (not p74) p2 p47) (or (not p41) p7 p72) (or (not p47) (not p50) p69) (or p36 p55 p8) (or p9 p13 (not p72)) (or p28 (not p5) (not p79)) (or p16 (not p0) p17) (or p28 p38 p40) (or (not p18) (not p67) p77) (or p55 p48 (not p50)) (or (not p63) (not p76) p0) (or p23 (not p65) (not p62)) (or p68 (not p6) (not p4)) (or p57 (not p50) p15) (or p69 (not p30) p46) (or p55 p67 p10) (or (not p12) (not p47) (not p18)) (or p33 (not p28) p11) (or (not p35) p23 (not p19)) (or p2 p8 p9) (or p69 (not p38) p60) (or p59 p23 (not p21)) (or p52 (not p79) p30) (or p37 (not p75) p27) (or p52 (not p22) p49) (or p48 p47 (not p14)) (or p56 p29 p58) (or (not p12) (not p2) p73) (or p24 (not p23) p33) (or p49 p6 (not p33)) (or p37 p44 (not p6)) (or p8 p26 p74) (or (not p54) (not p12) (not p31)) (or (not p39) p41 p19) (or (not p31) (not p21) p5) (or p20 p60 (not p25)) (or p27 (not p52) p57) (or p19 (not p58) p78))
)
(check-sat)
(get-model)
